c p0@v4 --> 27
c p9@v1 --> 21
c @top --> 28
c p9@v0 --> 20
c p1@v3 --> 19
c p1@v1 --> 17
c p1@v0 --> 16
c p0@v3 --> 26
c p0@v0 --> 23
c p5 --> 15
c p1@v2 --> 18
c p6@v5 --> 14
c p4 --> 6
c p9@v2 --> 22
c p6@v4 --> 13
c p8@v3 --> 4
c p8@v0 --> 1
c p2 --> 8
c p0@v2 --> 25
c p8@v2 --> 3
c p6@v2 --> 11
c p6@v0 --> 9
c p8@v1 --> 2
c p3 --> 7
c p6@v1 --> 10
c p0@v1 --> 24
c p7 --> 5
c p6@v3 --> 12
p cnf 28 67
-19 -24 0
-19 -25 0
-19 -26 0
-17 -23 0
-18 -26 0
5 15 -2 -9 0
-17 -25 0
5 15 -3 -9 0
-16 -26 0
-18 -23 0
-17 -27 0
5 -11 15 -1 0
5 15 -12 -1 0
-16 -23 0
5 -9 -1 0
-27 -19 0
5 15 -13 -1 0
-4 5 15 -9 0
5 15 -1 -14 0
5 15 -10 -1 0
-5 15 -1 -9 0
1 2 3 4 0
-1 -2 0
-1 -3 0
-1 -4 0
-2 -3 0
-2 -4 0
-3 -4 0
9 10 11 12 13 14 0
-9 -10 0
-9 -11 0
-9 -12 0
-9 -13 0
-9 -14 0
-10 -11 0
-10 -12 0
-10 -13 0
-10 -14 0
-11 -12 0
-11 -13 0
-11 -14 0
-12 -13 0
-12 -14 0
-13 -14 0
16 17 18 19 0
-16 -17 0
-16 -18 0
-16 -19 0
-17 -18 0
-17 -19 0
-18 -19 0
20 21 22 0
-20 -21 0
-20 -22 0
-21 -22 0
23 24 25 26 27 0
-23 -24 0
-23 -25 0
-23 -26 0
-23 -27 0
-24 -25 0
-24 -26 0
-24 -27 0
-25 -26 0
-25 -27 0
-26 -27 0
28 -28 0
